M = 2;
N = 8;
L = [15, 10];
E = 42;
S = [3, 2, 6, 5, 4, 4];
FROM = [1, 1, 1, 1, 1, 1, 2, 2, 2, 2, 2, 2, 3, 3, 3, 3, 3, 3, 4, 4, 4, 4, 4, 4, 5, 5, 5, 5, 5, 5, 6, 6, 6, 6, 6, 6, 7, 7, 7, 7, 7, 7];
TO = [2, 3, 4, 5, 6, 8, 1, 3, 4, 5, 6, 8, 1, 2, 4, 5, 6, 8, 1, 2, 3, 5, 6, 8, 1, 2, 3, 4, 6, 8, 1, 2, 3, 4, 5, 8, 1, 2, 3, 4, 5, 6];
W = [3, 4, 5, 6, 6, 2, 3, 1, 4, 5, 7, 3, 4, 1, 5, 6, 6, 4, 4, 4, 5, 3, 3, 2, 6, 7, 8, 3, 2, 4, 6, 7, 8, 3, 2, 4, 2, 3, 4, 3, 4, 4];
